175
630
93
912
532
432
484
374
765
760
120
235
36
500
430
352
441
39
168
810
700
468
410
217
864
629
130
572
627
750
520
551
414
144
200
546
403
784
342
486
765
476
867
820
570
611
740
26
731
512
850
546
224
874
105
520
168
558
384
407
513
88
660
510
800
58
470
360
225
645
288
294
570
56
675
170
624
410
270
528
185
416
792
462
150
78
580
506
315
375
252
558
784
342
54
660
374
153
800
